Please solve the following SAT Problem encoded in DIMACS format, only return a single solution assignment without explanations, if there is any: 
p cnf 10 75
8 2 -3 0
5 8 6 0
-9 -1 8 0
-1 -8 2 0
6 1 9 0
7 9 5 0
9 -1 -7 0
-4 -3 9 0
-4 5 -3 0
7 -3 -10 0
-1 -4 9 0
10 -3 1 0
-4 -9 6 0
5 10 -4 0
7 -9 5 0
9 -3 5 0
5 -3 10 0
-2 8 -4 0
10 2 -1 0
9 -2 -4 0
-4 5 -2 0
-3 -4 7 0
6 5 7 0
6 5 4 0
-4 5 8 0
-3 5 7 0
9 4 -6 0
-2 -1 7 0
-1 7 4 0
2 -1 10 0
7 -1 2 0
9 -5 2 0
10 -5 6 0
2 7 -1 0
-4 8 -3 0
9 10 7 0
8 9 -5 0
-4 9 5 0
-3 -9 7 0
-1 10 8 0
10 5 8 0
9 5 -3 0
-4 9 6 0
2 -4 6 0
-1 8 -4 0
-1 -4 10 0
-9 2 -1 0
2 8 9 0
5 -3 7 0
-3 7 6 0
-1 9 7 0
5 -9 -1 0
10 -8 -2 0
-7 3 2 0
7 -9 5 0
2 8 -3 0
-4 9 8 0
2 10 4 0
10 2 9 0
-3 -4 9 0
-1 6 10 0
2 8 -1 0
10 5 -4 0
6 -4 2 0
2 8 -4 0
7 10 2 0
-4 -1 8 0
4 -10 7 0
-4 -3 -9 0
-1 9 5 0
8 10 -5 0
4 -5 -1 0
-1 2 -3 0
2 5 10 0
7 2 -4 0

